SECTION Graph
Nodes 64
Edges 192
E 2 1 2
E 3 1 1
E 4 2 2
E 4 3 1
E 5 1 1
E 6 2 2
E 6 5 1
E 7 3 2
E 7 5 2
E 8 4 1
E 8 6 1
E 8 7 2
E 9 1 1
E 10 2 2
E 10 9 1
E 11 3 1
E 11 9 1
E 12 4 1
E 12 10 1
E 12 11 1
E 13 5 1
E 13 9 1
E 14 6 1
E 14 10 1
E 14 13 1
E 15 7 2
E 15 11 1
E 15 13 1
E 16 8 2
E 16 12 2
E 16 14 2
E 16 15 2
E 17 1 1
E 18 2 2
E 18 17 1
E 19 3 1
E 19 17 1
E 20 4 1
E 20 18 1
E 20 19 1
E 21 5 1
E 21 17 1
E 22 6 1
E 22 18 1
E 22 21 1
E 23 7 2
E 23 19 1
E 23 21 1
E 24 8 2
E 24 20 2
E 24 22 2
E 24 23 2
E 25 9 1
E 25 17 1
E 26 10 1
E 26 18 1
E 26 25 1
E 27 11 2
E 27 19 2
E 27 25 2
E 28 12 1
E 28 20 1
E 28 26 1
E 28 27 2
E 29 13 2
E 29 21 2
E 29 25 2
E 30 14 1
E 30 22 1
E 30 26 1
E 30 29 2
E 31 15 1
E 31 23 1
E 31 27 2
E 31 29 2
E 32 16 2
E 32 24 2
E 32 28 1
E 32 30 1
E 32 31 1
E 33 1 1
E 34 2 2
E 34 33 1
E 35 3 1
E 35 33 1
E 36 4 2
E 36 34 2
E 36 35 2
E 37 5 1
E 37 33 1
E 38 6 2
E 38 34 2
E 38 37 2
E 39 7 2
E 39 35 1
E 39 37 1
E 40 8 1
E 40 36 2
E 40 38 2
E 40 39 1
E 41 9 2
E 41 33 2
E 42 10 1
E 42 34 1
E 42 41 2
E 43 11 1
E 43 35 1
E 43 41 2
E 44 12 1
E 44 36 2
E 44 42 1
E 44 43 1
E 45 13 1
E 45 37 1
E 45 41 2
E 46 14 1
E 46 38 2
E 46 42 1
E 46 45 1
E 47 15 1
E 47 39 1
E 47 43 1
E 47 45 1
E 48 16 2
E 48 40 1
E 48 44 1
E 48 46 1
E 48 47 1
E 49 17 2
E 49 33 2
E 50 18 1
E 50 34 1
E 50 49 2
E 51 19 1
E 51 35 1
E 51 49 2
E 52 20 1
E 52 36 2
E 52 50 1
E 52 51 1
E 53 21 1
E 53 37 1
E 53 49 2
E 54 22 1
E 54 38 2
E 54 50 1
E 54 53 1
E 55 23 1
E 55 39 1
E 55 51 1
E 55 53 1
E 56 24 2
E 56 40 1
E 56 52 1
E 56 54 1
E 56 55 1
E 57 25 1
E 57 41 2
E 57 49 2
E 58 26 2
E 58 42 2
E 58 50 2
E 58 57 2
E 59 27 2
E 59 43 1
E 59 51 1
E 59 57 1
E 60 28 1
E 60 44 1
E 60 52 1
E 60 58 2
E 60 59 1
E 61 29 2
E 61 45 1
E 61 53 1
E 61 57 1
E 62 30 1
E 62 46 1
E 62 54 1
E 62 58 2
E 62 61 1
E 63 31 2
E 63 47 2
E 63 55 2
E 63 59 2
E 63 61 2
E 64 32 1
E 64 48 1
E 64 56 1
E 64 60 1
E 64 62 1
E 64 63 2
END

SECTION Terminals
Terminals 12
T 2
T 7
T 16
T 24
T 27
T 29
T 36
T 38
T 41
T 49
T 58
T 63
END

EOF
